Crypto/instances/samples/hf_n32/hf_n32_cnf13.sol
c DPLL-like Solver for max-min SAT
f file hf_n32_cnf13.cnf
p cnf 32 220
s max  220 -30 8 -7 5 -6 -22 -12 9 -11 27 -10 15 -14 -16 -13 -24 -18 3 1 2 -17 -28 -19 4 -21 -31 -29 -23 -25 -20 -32 -26
s min  192 -12 -9 -10 -11 23 8 -30 24 16 15 -14 -13 -32 -28 -20 -22 19 27 -21 -31 -18 29 -26 17 -25 1 2 -3 -4 -5 6 -7